SDVRP instances/custom_instances/p01_6_split0.vrp
NAME:p01_6_split
BEST_KNOWN: 0
COMMENT: 0
DIMENSION: 211
CAPACITY: 160
EDGE_WEIGHT_FORMAT: FUNCTION
EDGE_WEIGHT_TYPE: EXACT_2D
NODE_COORD_SECTION
1 0.00000 0.00000
2 -40 34
3 -40 34
4 44 37
5 44 37
6 44 37
7 44 37
8 44 37
9 44 37
10 -31 -36
11 -31 -36
12 -31 -36
13 -31 -36
14 -31 -36
15 -31 -36
16 -11 -47
17 -11 -47
18 -11 -47
19 -11 -47
20 -11 -47
21 -38 -30
22 -38 -30
23 -38 -30
24 -38 -30
25 -38 -30
26 38 -36
27 38 -36
28 38 -36
29 38 -36
30 38 -36
31 38 -36
32 45 47
33 45 47
34 45 47
35 45 47
36 -40 34
37 -40 34
38 -40 34
39 -48 35
40 -48 35
41 -48 35
42 -6 -32
43 -6 -32
44 -6 -32
45 -3 -6
46 -3 -6
47 -3 -6
48 -3 -6
49 -3 -6
50 -33 -17
51 -33 -17
52 -33 -17
53 -33 -17
54 8 4
55 8 4
56 8 4
57 8 4
58 8 4
59 -6 -30
60 -6 -30
61 -6 -30
62 -6 -30
63 -6 -30
64 -6 -30
65 -6 -30
66 6 38
67 6 38
68 6 38
69 6 38
70 -37 -42
71 -37 -42
72 -37 -42
73 -37 -42
74 -37 -42
75 -44 44
76 -44 44
77 -44 44
78 -44 44
79 -44 44
80 4 -40
81 4 -40
82 4 -40
83 21 -7
84 21 -7
85 21 -7
86 21 -7
87 21 -7
88 21 -7
89 25 18
90 25 18
91 25 18
92 25 18
93 25 18
94 10 -47
95 10 -47
96 10 -47
97 10 -47
98 10 -47
99 10 -47
100 36 49
101 36 49
102 36 49
103 2 30
104 2 30
105 2 30
106 2 30
107 -35 7
108 -35 7
109 -35 7
110 -35 7
111 -35 7
112 -26 36
113 -26 36
114 -26 36
115 -26 36
116 -26 36
117 -26 36
118 -18 -7
119 -18 -7
120 1 16
121 1 16
122 1 16
123 1 16
124 23 44
125 23 44
126 23 44
127 -30 49
128 -30 49
129 -30 49
130 -30 49
131 -43 3
132 -43 3
133 -43 3
134 -43 3
135 -2 5
136 -2 5
137 -2 5
138 -2 5
139 39 39
140 39 39
141 39 39
142 16 -34
143 16 -34
144 -21 9
145 -21 9
146 -21 9
147 -21 9
148 -21 9
149 -12 45
150 -12 45
151 -12 45
152 -12 45
153 15 -40
154 -35 9
155 -35 9
156 -35 9
157 -35 9
158 -13 26
159 -13 26
160 -27 8
161 -27 8
162 -27 8
163 -27 8
164 -27 8
165 0 5
166 0 5
167 0 5
168 -39 -48
169 -39 -48
170 -39 -48
171 -39 -48
172 -39 -48
173 -39 -48
174 -47 39
175 -47 39
176 -47 39
177 -47 39
178 -47 39
179 -47 39
180 -21 -10
181 -21 -10
182 -21 -10
183 -42 -25
184 -42 -25
185 -42 -25
186 -42 -25
187 -49 -13
188 -49 -13
189 -49 -13
190 -20 45
191 -20 45
192 -20 45
193 -15 19
194 -15 19
195 -15 19
196 -15 19
197 25 -30
198 25 -30
199 25 -30
200 25 -30
201 25 -30
202 -41 34
203 -41 34
204 -41 34
205 -41 34
206 -41 34
207 -27 -15
208 -27 -15
209 -27 -15
210 -27 -15
211 -27 -15
DEMAND_SECTION
1 0
2 32
3 1
4 32
5 16
6 8
7 2
8 2
9 1
10 32
11 32
12 2
13 2
14 2
15 1
16 32
17 32
18 2
19 2
20 2
21 16
22 8
23 2
24 2
25 1
26 32
27 32
28 8
29 2
30 2
31 2
32 16
33 2
34 2
35 1
36 32
37 8
38 1
39 16
40 8
41 2
42 32
43 2
44 1
45 32
46 2
47 2
48 2
49 1
50 32
51 2
52 2
53 1
54 32
55 8
56 2
57 2
58 1
59 32
60 16
61 8
62 2
63 2
64 2
65 1
66 16
67 8
68 2
69 2
70 32
71 16
72 8
73 2
74 1
75 32
76 2
77 2
78 2
79 1
80 32
81 32
82 16
83 32
84 16
85 8
86 2
87 2
88 1
89 16
90 2
91 2
92 2
93 1
94 32
95 16
96 2
97 2
98 2
99 1
100 16
101 8
102 2
103 32
104 32
105 2
106 1
107 32
108 16
109 8
110 2
111 1
112 32
113 16
114 8
115 2
116 2
117 1
118 32
119 8
120 32
121 32
122 2
123 1
124 16
125 8
126 2
127 32
128 32
129 2
130 2
131 16
132 2
133 2
134 1
135 32
136 2
137 2
138 1
139 16
140 8
141 2
142 32
143 2
144 32
145 32
146 8
147 2
148 2
149 32
150 32
151 8
152 2
153 32
154 32
155 8
156 2
157 2
158 32
159 8
160 32
161 32
162 8
163 2
164 1
165 16
166 8
167 2
168 32
169 32
170 8
171 2
172 2
173 1
174 32
175 32
176 8
177 2
178 2
179 1
180 32
181 32
182 2
183 32
184 16
185 8
186 2
187 32
188 16
189 2
190 32
191 16
192 1
193 16
194 8
195 2
196 1
197 16
198 8
199 2
200 2
201 1
202 32
203 32
204 2
205 2
206 1
207 32
208 16
209 8
210 2
211 2
DEPOT_SECTION
1
-1
EOF