SDVRP instances/custom_instances/p01_6_split0.sol
210 -12 11 10 72 69 71 73 172 167 169 168 170 171 -14 9 13 70 21 24 23 22 20 182 185 184 183 51 50 52 207 -17 19 16 15 18 98 96 97 95 94 93 152 -39 40 38 173 177 174 176 178 175 75 74 78 77 76 116 114 195 194 193 -47 46 48 44 45 179 181 180 118 117 -57 56 53 55 54 83 86 87 82 84 85 -61 60 58 62 42 43 41 80 79 81 -64 63 59 142 141 25 26 29 28 30 27 197 198 196 199 200 -66 68 65 67 149 150 151 148 190 189 191 158 -92 91 89 88 90 102 103 105 104 119 120 122 121 -109 110 107 106 108 155 153 154 156 161 162 159 163 147 145 146 -111 115 112 113 129 127 128 126 157 -124 125 123 101 99 100 34 33 31 32 4 8 3 7 5 6 139 140 138 -132 133 131 130 186 187 188 49 208 206 209 210 -160 144 143 135 137 136 134 164 166 165 -192 37 35 2 1 36 201 203 202 204 205 0 





OBJ=
1630.636
BEST_KNOWN=
0.000